assets/logs/19_10x10_clingo/19_10x10_clingo.solution.log

-----------------------------------------
| 88| 37| 68| 33| 71|  1| 72|  2| 67| 10|
-----------------------------------------
| 66|  1| 86|  1| 70| 31| 69|  8| 74|  4|
-----------------------------------------
| 39| 90| 35|  0| 84| 73| 80|  1| 12| 65|
-----------------------------------------
|  0| 64| 46| 43| 29| 60| 21|  1|  6| 76|
-----------------------------------------
| 44| 41| 55| 62| 23| 82| 75| 78| 63| 14|
-----------------------------------------
| 53| 48| 45| 27| 77| 19| 58|  7| 26|  3|
-----------------------------------------
| 47| 42| 51| 57| 56| 25| 24| 61| 16|  9|
-----------------------------------------
|  0| 36| 50| 79| 17| 59| 13| 28|  5| 87|
-----------------------------------------
|  1| 49| 40| 54| 32| 22| 83| 89| 11| 18|
-----------------------------------------
| 38| 52| 34|  1| 81| 15| 30| 20| 85| 91|
-----------------------------------------

| n = 10 | k = 7 | coverage = 97, 97.0%
 Time 300.002
 Name 19_10x10_clingo

