assets/logs/19_10x10_clingo/19_10x10_clingo.log
clingo version 5.4.0
Reading from ...s/logs/19_10x10_clingo/knights_tour.lp ...
Solving...
Answer: 1
occ(1,10,4) occ(1,9,1) occ(1,2,2) occ(1,3,8) occ(1,1,6) occ(1,4,8) occ(1,2,4) occ(2,1,8) occ(3,6,10) coverage(6)
Optimization: -6
Answer: 2
occ(1,10,4) occ(1,9,1) occ(1,2,2) occ(1,3,8) occ(1,1,6) occ(1,4,8) occ(1,2,4) occ(2,1,8) occ(3,6,10) coverage(7) occ(4,2,10) occ(6,4,9)
Optimization: -7
Answer: 3
occ(1,10,4) occ(1,9,1) occ(1,2,2) occ(1,3,8) occ(1,1,6) occ(1,4,8) occ(1,2,4) occ(2,1,8) occ(3,6,10) coverage(66) occ(30,1,2) occ(35,1,7) occ(39,1,5) occ(47,1,3) occ(58,1,4) occ(64,1,9) occ(4,2,10) occ(8,2,8) occ(29,2,9) occ(33,2,5) occ(41,2,3) occ(45,2,1) occ(56,2,6) occ(62,2,7) occ(9,3,4) occ(10,3,10) occ(28,3,3) occ(31,3,7) occ(32,3,1) occ(37,3,6) occ(49,3,2) occ(52,3,9) occ(60,3,5) occ(6,4,9) occ(7,4,6) occ(20,4,4) occ(26,4,5) occ(27,4,10) occ(43,4,2) occ(53,4,3) occ(54,4,7) occ(5,5,8) occ(11,5,5) occ(12,5,9) occ(16,5,7) occ(22,5,6) occ(34,5,2) occ(50,5,10) occ(51,5,1) occ(13,6,7) occ(17,6,3) occ(18,6,5) occ(24,6,4) occ(25,6,9) occ(55,6,2) occ(61,6,1) occ(71,6,6) occ(91,6,8) occ(14,7,8) occ(15,7,5) occ(23,7,7) occ(36,7,1) occ(48,7,9) occ(59,7,3) occ(69,7,4) occ(93,7,10) occ(19,8,4) occ(38,8,3) occ(44,8,6) occ(57,8,1) occ(63,8,2) occ(73,8,5) occ(83,8,8) occ(89,8,9) occ(97,8,7) occ(21,9,6) occ(42,9,4) occ(46,9,8) occ(67,9,5) occ(75,9,3) occ(79,9,7) occ(85,9,10) occ(95,9,9) occ(40,10,2) occ(65,10,3) occ(77,10,5) occ(81,10,9) occ(87,10,8) occ(99,10,6)
Optimization: -66
Answer: 4
occ(1,10,4) occ(1,9,1) occ(1,2,2) occ(1,3,8) occ(1,1,6) occ(1,4,8) occ(1,2,4) occ(2,1,8) occ(3,6,10) coverage(77) occ(31,1,7) occ(35,1,3) occ(43,1,5) occ(4,2,10) occ(19,2,8) occ(29,2,9) occ(33,2,5) occ(41,2,7) occ(45,2,3) occ(49,2,1) occ(7,3,9) occ(17,3,10) occ(27,3,7) occ(28,3,1) occ(37,3,4) occ(51,3,3) occ(60,3,5) occ(69,3,2) occ(6,4,9) occ(21,4,7) occ(25,4,5) occ(30,4,3) occ(39,4,6) occ(47,4,2) occ(53,4,1) occ(67,4,4) occ(5,5,8) occ(9,5,10) occ(15,5,9) occ(26,5,2) occ(32,5,5) occ(58,5,6) occ(62,5,4) occ(71,5,1) occ(76,5,3) occ(8,6,8) occ(13,6,7) occ(23,6,6) occ(24,6,4) occ(34,6,3) occ(46,6,9) occ(55,6,2) occ(65,6,5) occ(10,7,10) occ(11,7,9) occ(14,7,8) occ(44,7,7) occ(56,7,5) occ(64,7,3) occ(68,7,1) occ(73,7,2) occ(74,7,4) occ(16,8,10) occ(22,8,5) occ(36,8,2) occ(40,8,4) occ(48,8,8) occ(54,8,7) occ(57,8,1) occ(63,8,6) occ(70,8,3) occ(12,9,9) occ(18,9,8) occ(42,9,6) occ(50,9,10) occ(61,9,4) occ(66,9,2) occ(72,9,5) occ(75,9,3) occ(20,10,6) occ(38,10,3) occ(52,10,8) occ(59,10,2)
Optimization: -77
Answer: 5
occ(1,10,4) occ(1,9,1) occ(1,2,2) occ(1,3,8) occ(1,1,6) occ(1,4,8) occ(1,2,4) occ(2,1,8) occ(3,6,10) coverage(78) occ(31,1,7) occ(35,1,3) occ(43,1,5) occ(4,2,10) occ(19,2,8) occ(29,2,9) occ(33,2,5) occ(41,2,7) occ(45,2,3) occ(49,2,1) occ(7,3,9) occ(17,3,10) occ(27,3,7) occ(28,3,1) occ(37,3,4) occ(51,3,3) occ(60,3,5) occ(69,3,2) occ(6,4,9) occ(21,4,7) occ(25,4,5) occ(30,4,3) occ(39,4,6) occ(47,4,2) occ(53,4,1) occ(67,4,4) occ(5,5,8) occ(9,5,10) occ(15,5,9) occ(26,5,2) occ(32,5,5) occ(58,5,6) occ(62,5,4) occ(71,5,1) occ(76,5,3) occ(8,6,8) occ(13,6,7) occ(23,6,6) occ(24,6,4) occ(34,6,3) occ(46,6,9) occ(55,6,2) occ(65,6,5) occ(10,7,10) occ(11,7,9) occ(14,7,8) occ(44,7,7) occ(56,7,5) occ(64,7,3) occ(68,7,1) occ(73,7,2) occ(74,7,4) occ(16,8,10) occ(22,8,5) occ(36,8,2) occ(40,8,4) occ(48,8,8) occ(54,8,7) occ(57,8,1) occ(63,8,6) occ(70,8,3) occ(12,9,9) occ(18,9,8) occ(42,9,6) occ(50,9,10) occ(61,9,4) occ(66,9,2) occ(72,9,5) occ(75,9,3) occ(20,10,6) occ(38,10,3) occ(52,10,8) occ(59,10,2) occ(77,10,1)
Optimization: -78
Answer: 6
occ(1,10,4) occ(1,9,1) occ(1,2,2) occ(1,3,8) occ(1,1,6) occ(1,4,8) occ(1,2,4) occ(2,1,8) occ(3,6,10) coverage(80) occ(31,1,7) occ(35,1,3) occ(43,1,5) occ(4,2,10) occ(19,2,8) occ(29,2,9) occ(33,2,5) occ(41,2,7) occ(45,2,3) occ(49,2,1) occ(7,3,9) occ(17,3,10) occ(27,3,7) occ(28,3,1) occ(37,3,4) occ(51,3,3) occ(60,3,5) occ(69,3,2) occ(6,4,9) occ(21,4,7) occ(25,4,5) occ(30,4,3) occ(39,4,6) occ(47,4,2) occ(53,4,1) occ(67,4,4) occ(5,5,8) occ(9,5,10) occ(15,5,9) occ(26,5,2) occ(32,5,5) occ(58,5,6) occ(62,5,4) occ(71,5,1) occ(76,5,3) occ(8,6,8) occ(13,6,7) occ(23,6,6) occ(24,6,4) occ(34,6,3) occ(46,6,9) occ(55,6,2) occ(65,6,5) occ(78,6,1) occ(10,7,10) occ(11,7,9) occ(14,7,8) occ(44,7,7) occ(56,7,5) occ(64,7,3) occ(68,7,1) occ(73,7,2) occ(74,7,4) occ(16,8,10) occ(22,8,5) occ(36,8,2) occ(40,8,4) occ(48,8,8) occ(54,8,7) occ(57,8,1) occ(63,8,6) occ(70,8,3) occ(12,9,9) occ(18,9,8) occ(42,9,6) occ(50,9,10) occ(61,9,4) occ(66,9,2) occ(72,9,5) occ(75,9,3) occ(79,9,7) occ(20,10,6) occ(38,10,3) occ(52,10,8) occ(59,10,2) occ(77,10,5)
Optimization: -80
Answer: 7
occ(1,10,4) occ(1,9,1) occ(1,2,2) occ(1,3,8) occ(1,1,6) occ(1,4,8) occ(1,2,4) occ(2,1,8) occ(3,6,10) coverage(81) occ(31,1,7) occ(35,1,3) occ(43,1,5) occ(62,1,4) occ(4,2,10) occ(19,2,8) occ(29,2,9) occ(33,2,5) occ(41,2,7) occ(45,2,3) occ(49,2,1) occ(64,2,6) occ(12,3,9) occ(16,3,7) occ(17,3,10) occ(21,3,6) occ(28,3,1) occ(37,3,4) occ(51,3,3) occ(60,3,5) occ(69,3,2) occ(6,4,9) occ(18,4,5) occ(27,4,10) occ(30,4,3) occ(39,4,6) occ(47,4,2) occ(53,4,1) occ(66,4,7) occ(67,4,4) occ(10,5,10) occ(14,5,8) occ(15,5,9) occ(23,5,7) occ(26,5,2) occ(32,5,5) occ(58,5,6) occ(70,5,4) occ(71,5,1) occ(76,5,3) occ(8,6,8) occ(13,6,7) occ(20,6,4) occ(25,6,9) occ(34,6,3) occ(55,6,2) occ(65,6,5) occ(68,6,6) occ(74,6,1) occ(5,7,8) occ(24,7,1) occ(44,7,7) occ(56,7,5) occ(72,7,3) occ(73,7,2) occ(78,7,4) occ(86,7,10) occ(7,8,10) occ(11,8,8) occ(22,8,3) occ(36,8,2) occ(40,8,4) occ(46,8,9) occ(54,8,7) occ(57,8,1) occ(63,8,6) occ(42,9,6) occ(50,9,8) occ(61,9,4) occ(75,9,3) occ(79,9,7) occ(80,9,5) occ(84,9,9) occ(9,10,9) occ(38,10,3) occ(48,10,10) occ(52,10,6) occ(59,10,2) occ(77,10,5) occ(82,10,7)
Optimization: -81
Answer: 8
occ(1,10,4) occ(1,9,1) occ(1,2,2) occ(1,3,8) occ(1,1,6) occ(1,4,8) occ(1,2,4) occ(2,1,8) occ(3,6,10) coverage(83) occ(31,1,7) occ(35,1,3) occ(43,1,5) occ(62,1,4) occ(4,2,10) occ(19,2,8) occ(29,2,9) occ(33,2,5) occ(41,2,7) occ(45,2,3) occ(49,2,1) occ(64,2,6) occ(12,3,9) occ(16,3,7) occ(17,3,10) occ(21,3,6) occ(28,3,1) occ(37,3,4) occ(51,3,3) occ(60,3,5) occ(69,3,2) occ(6,4,9) occ(18,4,5) occ(27,4,10) occ(30,4,3) occ(39,4,6) occ(47,4,2) occ(53,4,1) occ(66,4,7) occ(67,4,4) occ(10,5,10) occ(14,5,8) occ(15,5,9) occ(23,5,7) occ(26,5,2) occ(32,5,5) occ(58,5,6) occ(70,5,4) occ(71,5,1) occ(76,5,3) occ(8,6,8) occ(13,6,7) occ(20,6,4) occ(25,6,9) occ(34,6,3) occ(55,6,2) occ(65,6,5) occ(68,6,6) occ(74,6,1) occ(5,7,8) occ(24,7,1) occ(44,7,7) occ(56,7,5) occ(72,7,3) occ(73,7,2) occ(78,7,4) occ(81,7,6) occ(86,7,10) occ(7,8,10) occ(11,8,8) occ(22,8,3) occ(36,8,2) occ(40,8,4) occ(46,8,9) occ(54,8,7) occ(57,8,1) occ(63,8,6) occ(42,9,6) occ(50,9,8) occ(61,9,4) occ(75,9,3) occ(79,9,7) occ(80,9,5) occ(84,9,9) occ(9,10,9) occ(38,10,3) occ(48,10,10) occ(52,10,6) occ(59,10,2) occ(77,10,5) occ(82,10,7)
Optimization: -83
Answer: 9
occ(1,10,4) occ(1,9,1) occ(1,2,2) occ(1,3,8) occ(1,1,6) occ(1,4,8) occ(1,2,4) occ(2,1,8) occ(3,6,10) coverage(85) occ(29,1,4) occ(35,1,3) occ(57,1,10) occ(80,1,7) occ(84,1,5) occ(25,2,3) occ(31,2,6) occ(37,2,5) occ(55,2,8) occ(78,2,9) occ(86,2,7) occ(4,3,7) occ(27,3,5) occ(33,3,4) occ(42,3,2) occ(48,3,1) occ(59,3,9) occ(64,3,3) occ(82,3,6) occ(23,4,2) occ(39,4,6) occ(46,4,3) occ(52,4,4) occ(53,4,9) occ(62,4,1) occ(66,4,5) occ(76,4,10) occ(81,4,7) occ(6,5,8) occ(40,5,3) occ(43,5,9) occ(44,5,1) occ(50,5,2) occ(61,5,10) occ(68,5,7) occ(73,5,6) occ(83,5,5) occ(10,6,5) occ(21,6,1) occ(41,6,7) occ(51,6,8) occ(54,6,3) occ(60,6,2) occ(74,6,9) occ(75,6,4) occ(79,6,6) occ(8,7,7) occ(14,7,4) occ(19,7,3) occ(38,7,2) occ(45,7,10) occ(56,7,1) occ(63,7,9) occ(70,7,8) occ(71,7,5) occ(5,8,9) occ(12,8,6) occ(17,8,1) occ(20,8,8) occ(28,8,4) occ(32,8,2) occ(49,8,7) occ(58,8,3) occ(72,8,10) occ(77,8,5) occ(9,9,8) occ(13,9,4) occ(16,9,5) occ(24,9,7) occ(36,9,3) occ(47,9,9) occ(65,9,10) occ(69,9,6) occ(7,10,10) occ(11,10,6) occ(15,10,2) occ(18,10,7) occ(22,10,9) occ(26,10,5) occ(30,10,3) occ(34,10,1) occ(67,10,8)
Optimization: -85
Answer: 10
occ(1,10,4) occ(1,9,1) occ(1,2,2) occ(1,3,8) occ(1,1,6) occ(1,4,8) occ(1,2,4) occ(2,1,8) occ(3,6,10) coverage(89) occ(24,1,5) occ(27,1,3) occ(28,1,9) occ(34,1,10) occ(68,1,1) occ(71,1,7) occ(4,2,6) occ(25,2,1) occ(26,2,7) occ(32,2,8) occ(66,2,3) occ(69,2,9) occ(73,2,5) occ(22,3,6) occ(29,3,4) occ(30,3,10) occ(36,3,9) occ(48,3,7) occ(64,3,5) occ(70,3,2) occ(75,3,3) occ(87,3,1) occ(6,4,5) occ(20,4,4) occ(23,4,2) occ(35,4,6) occ(46,4,9) occ(62,4,7) occ(67,4,10) occ(77,4,1) occ(81,4,3) occ(12,5,5) occ(31,5,3) occ(37,5,4) occ(38,5,8) occ(42,5,10) occ(50,5,6) occ(59,5,7) occ(60,5,9) occ(72,5,1) occ(85,5,2) occ(8,6,6) occ(14,6,7) occ(18,6,3) occ(21,6,1) occ(33,6,5) occ(44,6,8) occ(65,6,9) occ(79,6,2) occ(83,6,4) occ(10,7,4) occ(16,7,5) occ(39,7,3) occ(40,7,9) occ(43,7,1) occ(52,7,7) occ(57,7,6) occ(58,7,10) occ(61,7,8) occ(74,7,2) occ(5,8,9) occ(13,8,5) occ(19,8,2) occ(45,8,3) occ(51,8,6) occ(56,8,8) occ(63,8,10) occ(76,8,4) occ(86,8,7) occ(9,9,8) occ(15,9,3) occ(41,9,2) occ(49,9,4) occ(54,9,6) occ(55,9,7) occ(80,9,5) occ(84,9,9) occ(7,10,10) occ(11,10,6) occ(17,10,1) occ(47,10,2) occ(53,10,5) occ(78,10,3) occ(82,10,7) occ(88,10,8)
Optimization: -89
Answer: 11
occ(1,10,4) occ(1,9,1) occ(1,2,2) occ(1,3,8) occ(1,1,6) occ(1,4,8) occ(1,2,4) occ(2,1,8) occ(3,6,10) coverage(90) occ(24,1,5) occ(27,1,3) occ(28,1,9) occ(34,1,10) occ(68,1,1) occ(71,1,7) occ(89,1,2) occ(4,2,6) occ(25,2,1) occ(26,2,7) occ(32,2,8) occ(66,2,3) occ(69,2,9) occ(73,2,5) occ(22,3,6) occ(29,3,4) occ(30,3,10) occ(36,3,9) occ(48,3,7) occ(64,3,5) occ(70,3,2) occ(75,3,3) occ(87,3,1) occ(6,4,5) occ(20,4,4) occ(23,4,2) occ(35,4,6) occ(46,4,9) occ(62,4,7) occ(67,4,10) occ(77,4,1) occ(81,4,3) occ(12,5,5) occ(31,5,3) occ(37,5,4) occ(38,5,8) occ(42,5,10) occ(50,5,6) occ(59,5,7) occ(60,5,9) occ(72,5,1) occ(85,5,2) occ(8,6,6) occ(14,6,7) occ(18,6,3) occ(21,6,1) occ(33,6,5) occ(44,6,8) occ(65,6,9) occ(79,6,2) occ(83,6,4) occ(10,7,4) occ(16,7,5) occ(39,7,3) occ(40,7,9) occ(43,7,1) occ(52,7,7) occ(57,7,6) occ(58,7,10) occ(61,7,8) occ(74,7,2) occ(5,8,9) occ(13,8,5) occ(19,8,2) occ(45,8,3) occ(51,8,6) occ(56,8,8) occ(63,8,10) occ(76,8,4) occ(86,8,7) occ(9,9,8) occ(15,9,3) occ(41,9,2) occ(49,9,4) occ(54,9,6) occ(55,9,7) occ(80,9,5) occ(84,9,9) occ(7,10,10) occ(11,10,6) occ(17,10,1) occ(47,10,2) occ(53,10,5) occ(78,10,3) occ(82,10,7) occ(88,10,8)
Optimization: -90
Answer: 12
occ(1,10,4) occ(1,9,1) occ(1,2,2) occ(1,3,8) occ(1,1,6) occ(1,4,8) occ(1,2,4) occ(2,1,8) occ(3,6,10) coverage(91) occ(24,1,5) occ(27,1,3) occ(28,1,9) occ(34,1,10) occ(68,1,1) occ(71,1,7) occ(89,1,2) occ(4,2,6) occ(25,2,1) occ(26,2,7) occ(32,2,8) occ(66,2,3) occ(69,2,9) occ(73,2,5) occ(22,3,6) occ(29,3,4) occ(30,3,10) occ(36,3,9) occ(48,3,7) occ(64,3,5) occ(70,3,2) occ(75,3,3) occ(87,3,1) occ(6,4,5) occ(20,4,4) occ(23,4,2) occ(35,4,6) occ(46,4,9) occ(62,4,7) occ(67,4,10) occ(77,4,1) occ(81,4,3) occ(12,5,5) occ(31,5,3) occ(37,5,4) occ(38,5,8) occ(42,5,10) occ(50,5,6) occ(59,5,7) occ(60,5,9) occ(72,5,1) occ(85,5,2) occ(8,6,6) occ(14,6,7) occ(18,6,3) occ(21,6,1) occ(33,6,5) occ(44,6,8) occ(65,6,9) occ(79,6,2) occ(83,6,4) occ(10,7,4) occ(16,7,5) occ(39,7,3) occ(40,7,9) occ(43,7,1) occ(52,7,7) occ(57,7,6) occ(58,7,10) occ(61,7,8) occ(74,7,2) occ(5,8,9) occ(13,8,5) occ(19,8,2) occ(45,8,3) occ(51,8,6) occ(56,8,8) occ(63,8,10) occ(76,8,4) occ(86,8,7) occ(9,9,8) occ(15,9,3) occ(41,9,2) occ(49,9,4) occ(54,9,6) occ(55,9,7) occ(80,9,5) occ(84,9,9) occ(90,9,10) occ(7,10,10) occ(11,10,6) occ(17,10,1) occ(47,10,2) occ(53,10,5) occ(78,10,3) occ(82,10,7) occ(88,10,8)
Optimization: -91
Answer: 13
occ(1,10,4) occ(1,9,1) occ(1,2,2) occ(1,3,8) occ(1,1,6) occ(1,4,8) occ(1,2,4) occ(2,1,8) occ(3,6,10) coverage(92) occ(10,1,10) occ(33,1,4) occ(37,1,2) occ(67,1,9) occ(68,1,3) occ(71,1,5) occ(72,1,7) occ(88,1,1) occ(4,2,10) occ(8,2,8) occ(31,2,6) occ(66,2,1) occ(69,2,7) occ(70,2,5) occ(74,2,9) occ(86,2,3) occ(12,3,9) occ(35,3,3) occ(39,3,1) occ(65,3,10) occ(73,3,6) occ(80,3,7) occ(84,3,5) occ(90,3,2) occ(6,4,9) occ(21,4,7) occ(29,4,5) occ(43,4,4) occ(46,4,3) occ(60,4,6) occ(64,4,2) occ(76,4,10) occ(14,5,10) occ(23,5,5) occ(41,5,2) occ(44,5,1) occ(55,5,3) occ(62,5,4) occ(63,5,9) occ(75,5,7) occ(78,5,8) occ(82,5,6) occ(7,6,8) occ(19,6,6) occ(26,6,9) occ(27,6,4) occ(45,6,3) occ(48,6,2) occ(53,6,1) occ(58,6,7) occ(77,6,5) occ(9,7,10) occ(16,7,9) occ(24,7,7) occ(25,7,6) occ(42,7,2) occ(47,7,1) occ(51,7,3) occ(56,7,5) occ(57,7,4) occ(61,7,8) occ(5,8,9) occ(13,8,7) occ(17,8,5) occ(28,8,8) occ(36,8,2) occ(50,8,3) occ(59,8,6) occ(79,8,4) occ(87,8,10) occ(11,9,9) occ(18,9,10) occ(22,9,6) occ(32,9,5) occ(40,9,3) occ(49,9,2) occ(54,9,4) occ(83,9,7) occ(89,9,8) occ(15,10,6) occ(20,10,8) occ(30,10,7) occ(34,10,3) occ(38,10,1) occ(52,10,2) occ(81,10,5) occ(85,10,9) occ(91,10,10)
Optimization: -92
*** Info : (clingo): INTERRUPTED by signal!
SATISFIABLE

TIME LIMIT   : 1
Models       : 13+
  Optimum    : unknown
Optimization : -92
Calls        : 1
Time         : 300.000s (Solving: 298.54s 1st Model: 0.00s Unsat: 0.00s)
CPU Time     : 300.002s
